c nIsolatedPIs 0
c maxPI 32
p cnf 231 598
c gate 33 -14 -30 0
-14 -33 0
-30 -33 0
14 30 33 0
c gate 34 14 30 0
14 -34 0
30 -34 0
-14 -30 34 0
c gate 35 -33 -34 0
-33 -35 0
-34 -35 0
33 34 35 0
c gate 36 12 28 0
12 -36 0
28 -36 0
-12 -28 36 0
c gate 37 13 29 0
13 -37 0
29 -37 0
-13 -29 37 0
c gate 38 -36 -37 0
-36 -38 0
-37 -38 0
36 37 38 0
c gate 39 35 -38 0
35 -39 0
-38 -39 0
-35 38 39 0
c gate 40 -35 38 0
-35 -40 0
38 -40 0
35 -38 40 0
c gate 41 -39 -40 0
-39 -41 0
-40 -41 0
39 40 41 0
c gate 42 -13 -29 0
-13 -42 0
-29 -42 0
13 29 42 0
c gate 43 11 27 0
11 -43 0
27 -43 0
-11 -27 43 0
c gate 44 10 26 0
10 -44 0
26 -44 0
-10 -26 44 0
c gate 45 -43 -44 0
-43 -45 0
-44 -45 0
43 44 45 0
c gate 46 9 25 0
9 -46 0
25 -46 0
-9 -25 46 0
c gate 47 -8 -24 0
-8 -47 0
-24 -47 0
8 24 47 0
c gate 48 -7 -23 0
-7 -48 0
-23 -48 0
7 23 48 0
c gate 49 -6 -22 0
-6 -49 0
-22 -49 0
6 22 49 0
c gate 50 -2 -18 0
-2 -50 0
-18 -50 0
2 18 50 0
c gate 51 4 20 0
4 -51 0
20 -51 0
-4 -20 51 0
c gate 52 3 19 0
3 -52 0
19 -52 0
-3 -19 52 0
c gate 53 -51 -52 0
-51 -53 0
-52 -53 0
51 52 53 0
c gate 54 50 53 0
50 -54 0
53 -54 0
-50 -53 54 0
c gate 55 -3 -19 0
-3 -55 0
-19 -55 0
3 19 55 0
c gate 56 1 17 0
1 -56 0
17 -56 0
-1 -17 56 0
c gate 57 2 18 0
2 -57 0
18 -57 0
-2 -18 57 0
c gate 58 -56 -57 0
-56 -58 0
-57 -58 0
56 57 58 0
c gate 59 -55 -58 0
-55 -59 0
-58 -59 0
55 58 59 0
c gate 60 53 -59 0
53 -60 0
-59 -60 0
-53 59 60 0
c gate 61 -5 -21 0
-5 -61 0
-21 -61 0
5 21 61 0
c gate 62 -4 -20 0
-4 -62 0
-20 -62 0
4 20 62 0
c gate 63 -61 -62 0
-61 -63 0
-62 -63 0
61 62 63 0
c gate 64 -60 63 0
-60 -64 0
63 -64 0
60 -63 64 0
c gate 65 -54 64 0
-54 -65 0
64 -65 0
54 -64 65 0
c gate 66 6 22 0
6 -66 0
22 -66 0
-6 -22 66 0
c gate 67 5 21 0
5 -67 0
21 -67 0
-5 -21 67 0
c gate 68 -66 -67 0
-66 -68 0
-67 -68 0
66 67 68 0
c gate 69 -65 68 0
-65 -69 0
68 -69 0
65 -68 69 0
c gate 70 -49 -69 0
-49 -70 0
-69 -70 0
49 69 70 0
c gate 71 -48 70 0
-48 -71 0
70 -71 0
48 -70 71 0
c gate 72 8 24 0
8 -72 0
24 -72 0
-8 -24 72 0
c gate 73 7 23 0
7 -73 0
23 -73 0
-7 -23 73 0
c gate 74 -72 -73 0
-72 -74 0
-73 -74 0
72 73 74 0
c gate 75 -71 74 0
-71 -75 0
74 -75 0
71 -74 75 0
c gate 76 -47 -75 0
-47 -76 0
-75 -76 0
47 75 76 0
c gate 77 -46 -76 0
-46 -77 0
-76 -77 0
46 76 77 0
c gate 78 -9 -25 0
-9 -78 0
-25 -78 0
9 25 78 0
c gate 79 -10 -26 0
-10 -79 0
-26 -79 0
10 26 79 0
c gate 80 -78 -79 0
-78 -80 0
-79 -80 0
78 79 80 0
c gate 81 -77 80 0
-77 -81 0
80 -81 0
77 -80 81 0
c gate 82 45 -81 0
45 -82 0
-81 -82 0
-45 81 82 0
c gate 83 -11 -27 0
-11 -83 0
-27 -83 0
11 27 83 0
c gate 84 -12 -28 0
-12 -84 0
-28 -84 0
12 28 84 0
c gate 85 -36 -84 0
-36 -85 0
-84 -85 0
36 84 85 0
c gate 86 -83 85 0
-83 -86 0
85 -86 0
83 -85 86 0
c gate 87 -82 86 0
-82 -87 0
86 -87 0
82 -86 87 0
c gate 88 38 -87 0
38 -88 0
-87 -88 0
-38 87 88 0
c gate 89 -42 -88 0
-42 -89 0
-88 -89 0
42 88 89 0
c gate 90 35 -89 0
35 -90 0
-89 -90 0
-35 89 90 0
c gate 91 -35 89 0
-35 -91 0
89 -91 0
35 -89 91 0
c gate 92 -90 -91 0
-90 -92 0
-91 -92 0
90 91 92 0
c gate 93 41 92 0
41 -93 0
92 -93 0
-41 -92 93 0
c gate 94 -41 -92 0
-41 -94 0
-92 -94 0
41 92 94 0
c gate 95 -93 -94 0
-93 -95 0
-94 -95 0
93 94 95 0
c gate 96 10 -26 0
10 -96 0
-26 -96 0
-10 26 96 0
c gate 97 -46 -78 0
-46 -97 0
-78 -97 0
46 78 97 0
c gate 98 8 -24 0
8 -98 0
-24 -98 0
-8 24 98 0
c gate 99 -97 -98 0
-97 -99 0
-98 -99 0
97 98 99 0
c gate 100 -9 25 0
-9 -100 0
25 -100 0
9 -25 100 0
c gate 101 -10 26 0
-10 -101 0
26 -101 0
10 -26 101 0
c gate 102 -100 -101 0
-100 -102 0
-101 -102 0
100 101 102 0
c gate 103 -99 102 0
-99 -103 0
102 -103 0
99 -102 103 0
c gate 104 -96 -103 0
-96 -104 0
-103 -104 0
96 103 104 0
c gate 105 -47 -72 0
-47 -105 0
-72 -105 0
47 72 105 0
c gate 106 -7 23 0
-7 -106 0
23 -106 0
7 -23 106 0
c gate 107 -2 18 0
-2 -107 0
18 -107 0
2 -18 107 0
c gate 108 -1 17 0
-1 -108 0
17 -108 0
1 -17 108 0
c gate 109 -107 -108 0
-107 -109 0
-108 -109 0
107 108 109 0
c gate 110 2 -18 0
2 -110 0
-18 -110 0
-2 18 110 0
c gate 111 3 -19 0
3 -111 0
-19 -111 0
-3 19 111 0
c gate 112 -110 -111 0
-110 -112 0
-111 -112 0
110 111 112 0
c gate 113 -109 112 0
-109 -113 0
112 -113 0
109 -112 113 0
c gate 114 -4 20 0
-4 -114 0
20 -114 0
4 -20 114 0
c gate 115 -3 19 0
-3 -115 0
19 -115 0
3 -19 115 0
c gate 116 -114 -115 0
-114 -116 0
-115 -116 0
114 115 116 0
c gate 117 -113 116 0
-113 -117 0
116 -117 0
113 -116 117 0
c gate 118 5 -21 0
5 -118 0
-21 -118 0
-5 21 118 0
c gate 119 4 -20 0
4 -119 0
-20 -119 0
-4 20 119 0
c gate 120 -118 -119 0
-118 -120 0
-119 -120 0
118 119 120 0
c gate 121 -117 120 0
-117 -121 0
120 -121 0
117 -120 121 0
c gate 122 -49 -66 0
-49 -122 0
-66 -122 0
49 66 122 0
c gate 123 -5 21 0
-5 -123 0
21 -123 0
5 -21 123 0
c gate 124 -122 -123 0
-122 -124 0
-123 -124 0
122 123 124 0
c gate 125 -121 124 0
-121 -125 0
124 -125 0
121 -124 125 0
c gate 126 -106 125 0
-106 -126 0
125 -126 0
106 -125 126 0
c gate 127 7 -23 0
7 -127 0
-23 -127 0
-7 23 127 0
c gate 128 6 -22 0
6 -128 0
-22 -128 0
-6 22 128 0
c gate 129 -106 128 0
-106 -129 0
128 -129 0
106 -128 129 0
c gate 130 -127 -129 0
-127 -130 0
-129 -130 0
127 129 130 0
c gate 131 -126 130 0
-126 -131 0
130 -131 0
126 -130 131 0
c gate 132 -105 -131 0
-105 -132 0
-131 -132 0
105 131 132 0
c gate 133 102 132 0
102 -133 0
132 -133 0
-102 -132 133 0
c gate 134 104 -133 0
104 -134 0
-133 -134 0
-104 133 134 0
c gate 135 -43 -83 0
-43 -135 0
-83 -135 0
43 83 135 0
c gate 136 134 -135 0
134 -136 0
-135 -136 0
-134 135 136 0
c gate 137 -134 135 0
-134 -137 0
135 -137 0
134 -135 137 0
c gate 138 -136 -137 0
-136 -138 0
-137 -138 0
136 137 138 0
c gate 139 104 -138 0
104 -139 0
-138 -139 0
-104 138 139 0
c gate 140 -15 -31 0
-15 -140 0
-31 -140 0
15 31 140 0
c gate 141 15 31 0
15 -141 0
31 -141 0
-15 -31 141 0
c gate 142 -140 -141 0
-140 -142 0
-141 -142 0
140 141 142 0
c gate 143 -33 -90 0
-33 -143 0
-90 -143 0
33 90 143 0
c gate 144 142 -143 0
142 -144 0
-143 -144 0
-142 143 144 0
c gate 145 -140 -144 0
-140 -145 0
-144 -145 0
140 144 145 0
c gate 146 16 32 0
16 -146 0
32 -146 0
-16 -32 146 0
c gate 147 -16 -32 0
-16 -147 0
-32 -147 0
16 32 147 0
c gate 148 -146 -147 0
-146 -148 0
-147 -148 0
146 147 148 0
c gate 149 -34 -39 0
-34 -149 0
-39 -149 0
34 39 149 0
c gate 150 142 149 0
142 -150 0
149 -150 0
-142 -149 150 0
c gate 151 -140 -150 0
-140 -151 0
-150 -151 0
140 150 151 0
c gate 152 148 -151 0
148 -152 0
-151 -152 0
-148 151 152 0
c gate 153 145 152 0
145 -153 0
152 -153 0
-145 -152 153 0
c gate 154 -125 -153 0
-125 -154 0
-153 -154 0
125 153 154 0
c gate 155 -47 -48 0
-47 -155 0
-48 -155 0
47 48 155 0
c gate 156 -46 -72 0
-46 -156 0
-72 -156 0
46 72 156 0
c gate 157 -155 156 0
-155 -157 0
156 -157 0
155 -156 157 0
c gate 158 80 -157 0
80 -158 0
-157 -158 0
-80 157 158 0
c gate 159 45 -85 0
45 -159 0
-85 -159 0
-45 85 159 0
c gate 160 -158 159 0
-158 -160 0
159 -160 0
158 -159 160 0
c gate 161 81 160 0
81 -161 0
160 -161 0
-81 -160 161 0
c gate 162 85 158 0
85 -162 0
158 -162 0
-85 -158 162 0
c gate 163 82 162 0
82 -163 0
162 -163 0
-82 -162 163 0
c gate 164 -161 -163 0
-161 -164 0
-163 -164 0
161 163 164 0
c gate 165 -83 -164 0
-83 -165 0
-164 -165 0
83 164 165 0
c gate 166 95 165 0
95 -166 0
165 -166 0
-95 -165 166 0
c gate 167 -145 148 0
-145 -167 0
148 -167 0
145 -148 167 0
c gate 168 145 -148 0
145 -168 0
-148 -168 0
-145 148 168 0
c gate 169 -167 -168 0
-167 -169 0
-168 -169 0
167 168 169 0
c gate 170 -148 151 0
-148 -170 0
151 -170 0
148 -151 170 0
c gate 171 -152 -170 0
-152 -171 0
-170 -171 0
152 170 171 0
c gate 172 -169 171 0
-169 -172 0
171 -172 0
169 -171 172 0
c gate 173 169 -171 0
169 -173 0
-171 -173 0
-169 171 173 0
c gate 174 -142 -149 0
-142 -174 0
-149 -174 0
142 149 174 0
c gate 175 -150 -174 0
-150 -175 0
-174 -175 0
150 174 175 0
c gate 176 -142 143 0
-142 -176 0
143 -176 0
142 -143 176 0
c gate 177 -144 -176 0
-144 -177 0
-176 -177 0
144 176 177 0
c gate 178 175 -177 0
175 -178 0
-177 -178 0
-175 177 178 0
c gate 179 -175 177 0
-175 -179 0
177 -179 0
175 -177 179 0
c gate 180 -37 -42 0
-37 -180 0
-42 -180 0
37 42 180 0
c gate 181 87 -180 0
87 -181 0
-180 -181 0
-87 180 181 0
c gate 182 -94 -181 0
-94 -182 0
-181 -182 0
94 181 182 0
c gate 183 -179 -182 0
-179 -183 0
-182 -183 0
179 182 183 0
c gate 184 -178 -183 0
-178 -184 0
-183 -184 0
178 183 184 0
c gate 185 -173 -184 0
-173 -185 0
-184 -185 0
173 184 185 0
c gate 186 -172 -185 0
-172 -186 0
-185 -186 0
172 185 186 0
c gate 187 -166 186 0
-166 -187 0
186 -187 0
166 -186 187 0
c gate 188 74 155 0
74 -188 0
155 -188 0
-74 -155 188 0
c gate 189 -70 188 0
-70 -189 0
188 -189 0
70 -188 189 0
c gate 190 -87 -189 0
-87 -190 0
-189 -190 0
87 189 190 0
c gate 191 95 190 0
95 -191 0
190 -191 0
-95 -190 191 0
c gate 192 -187 -191 0
-187 -192 0
-191 -192 0
187 191 192 0
c gate 193 154 192 0
154 -193 0
192 -193 0
-154 -192 193 0
c gate 194 -48 -73 0
-48 -194 0
-73 -194 0
48 73 194 0
c gate 195 125 194 0
125 -195 0
194 -195 0
-125 -194 195 0
c gate 196 -125 -146 0
-125 -196 0
-146 -196 0
125 146 196 0
c gate 197 -152 196 0
-152 -197 0
196 -197 0
152 -196 197 0
c gate 198 167 197 0
167 -198 0
197 -198 0
-167 -197 198 0
c gate 199 -195 -198 0
-195 -199 0
-198 -199 0
195 198 199 0
c gate 200 -193 199 0
-193 -200 0
199 -200 0
193 -199 200 0
c gate 201 105 130 0
105 -201 0
130 -201 0
-105 -130 201 0
c gate 202 -131 201 0
-131 -202 0
201 -202 0
131 -201 202 0
c gate 203 -132 -202 0
-132 -203 0
-202 -203 0
132 202 203 0
c gate 204 200 203 0
200 -204 0
203 -204 0
-200 -203 204 0
c gate 205 -44 -79 0
-44 -205 0
-79 -205 0
44 79 205 0
c gate 206 -97 -205 0
-97 -206 0
-205 -206 0
97 205 206 0
c gate 207 132 206 0
132 -207 0
206 -207 0
-132 -206 207 0
c gate 208 -204 -207 0
-204 -208 0
-207 -208 0
204 207 208 0
c gate 209 -139 -208 0
-139 -209 0
-208 -209 0
139 208 209 0
c gate 210 -136 -209 0
-136 -210 0
-209 -210 0
136 209 210 0
c gate 211 -35 -142 0
-35 -211 0
-142 -211 0
35 142 211 0
c gate 212 -85 -148 0
-85 -212 0
-148 -212 0
85 148 212 0
c gate 213 -180 212 0
-180 -213 0
212 -213 0
180 -212 213 0
c gate 214 211 213 0
211 -214 0
213 -214 0
-211 -213 214 0
c gate 215 136 214 0
136 -215 0
214 -215 0
-136 -214 215 0
c gate 216 -210 -215 0
-210 -216 0
-215 -216 0
210 215 216 0
c gate 217 -165 -181 0
-165 -217 0
-181 -217 0
165 181 217 0
c gate 218 216 -217 0
216 -218 0
-217 -218 0
-216 217 218 0
c gate 219 50 56 0
50 -219 0
56 -219 0
-50 -56 219 0
c gate 220 -49 69 0
-49 -220 0
69 -220 0
49 -69 220 0
c gate 221 -219 -220 0
-219 -221 0
-220 -221 0
219 220 221 0
c gate 222 49 194 0
49 -222 0
194 -222 0
-49 -194 222 0
c gate 223 221 -222 0
221 -223 0
-222 -223 0
-221 222 223 0
c gate 224 -165 -223 0
-165 -224 0
-223 -224 0
165 223 224 0
c gate 225 -87 -224 0
-87 -225 0
-224 -225 0
87 224 225 0
c gate 226 -181 -225 0
-181 -226 0
-225 -226 0
181 225 226 0
c gate 227 -216 226 0
-216 -227 0
226 -227 0
216 -226 227 0
c gate 228 -218 -227 0
-218 -228 0
-227 -228 0
218 227 228 0
c gate 229 95 228 0
95 -229 0
228 -229 0
-95 -228 229 0
c gate 230 -95 -228 0
-95 -230 0
-228 -230 0
95 228 230 0
c gate 231 -229 -230 0
-229 -231 0
-230 -231 0
229 230 231 0
c PO
231 0
